id: 369
name: model10
group: meszaros/misc
method: 2

Gurobi 7.0.2 (linux64, Matlab) logging started Mon Mar 26 10:10:13 2018


Gurobi 7.0.2 (linux64) logging started Mon Mar 26 10:10:13 2018

Optimize a model with 4400 rows, 15447 columns and 149000 nonzeros
Coefficient statistics:
  Matrix range     [2e-05, 2e+04]
  Objective range  [1e-01, 2e+03]
  Bounds range     [1e-05, 3e+02]
  RHS range        [1e-02, 5e+01]
Presolve removed 1660 rows and 5295 columns
Presolve time: 0.06s
Presolved: 2740 rows, 10152 columns, 94806 nonzeros

Ordering time: 0.01s

Barrier statistics:
 AA' NZ     : 9.330e+04
 Factor NZ  : 3.280e+05 (roughly 8 MBytes of memory)
 Factor Ops : 6.014e+07 (less than 1 second per iteration)
 Threads    : 4

                  Objective                Residual
Iter       Primal          Dual         Primal    Dual     Compl     Time
   0  -2.23332866e+06 -1.72397636e+07  6.42e+03 4.21e+02  1.46e+05     0s
   1  -6.48653295e+05 -3.10787998e+07  1.96e+03 2.69e+02  4.59e+04     0s
   2  -1.43267849e+05 -2.11609196e+07  3.30e+02 8.09e+00  8.68e+03     0s
   3  -8.59909232e+04 -1.04814478e+07  1.05e+02 6.60e-02  2.88e+03     0s
   4  -7.37655613e+04 -5.47389024e+06  2.42e+01 5.68e-12  8.60e+02     0s
   5  -7.95543305e+04 -2.62050911e+06  4.79e+00 3.39e-12  2.74e+02     0s
   6  -8.90377683e+04 -1.37731614e+06  1.93e+00 3.64e-12  1.25e+02     0s
   7  -9.75926581e+04 -6.93570913e+05  8.47e-01 1.82e-12  5.50e+01     0s
   8  -1.11639466e+05 -4.43391071e+05  1.40e-01 1.24e-12  2.87e+01     0s
   9  -1.22321711e+05 -3.06860141e+05  6.41e-02 2.73e-12  1.58e+01     0s
  10  -1.31553073e+05 -2.38153252e+05  3.23e-02 1.93e-12  9.12e+00     0s
  11  -1.34937081e+05 -2.03739323e+05  2.59e-02 1.82e-12  5.88e+00     0s
  12  -1.39541387e+05 -1.87959327e+05  1.71e-02 1.82e-12  4.14e+00     0s
  13  -1.43199005e+05 -1.75608422e+05  9.88e-03 2.27e-12  2.76e+00     0s
  14  -1.45537137e+05 -1.65725067e+05  7.04e-03 2.27e-12  1.72e+00     0s
  15  -1.47783542e+05 -1.62530117e+05  4.73e-03 3.18e-12  1.26e+00     0s
  16  -1.49337247e+05 -1.59662567e+05  3.39e-03 2.73e-12  8.79e-01     0s
  17  -1.50310545e+05 -1.58550631e+05  2.64e-03 2.73e-12  7.02e-01     0s
  18  -1.51492510e+05 -1.56760553e+05  1.76e-03 1.82e-12  4.48e-01     0s
  19  -1.52466389e+05 -1.55969506e+05  1.13e-03 1.82e-12  2.98e-01     0s
  20  -1.52721553e+05 -1.55740728e+05  9.64e-04 1.82e-12  2.57e-01     0s
  21  -1.53284085e+05 -1.55489214e+05  6.34e-04 1.82e-12  1.88e-01     0s
  22  -1.53682123e+05 -1.54970745e+05  4.32e-04 9.09e-13  1.10e-01     0s
  23  -1.54124714e+05 -1.54794758e+05  2.03e-04 9.09e-13  5.70e-02     0s
  24  -1.54241116e+05 -1.54731347e+05  1.49e-04 9.09e-13  4.17e-02     0s
  25  -1.54393380e+05 -1.54692139e+05  8.12e-05 6.08e-13  2.54e-02     0s
  26  -1.54456740e+05 -1.54653423e+05  5.45e-05 4.05e-13  1.67e-02     0s
  27  -1.54525542e+05 -1.54619209e+05  2.74e-05 1.82e-12  7.96e-03     0s
  28  -1.54566201e+05 -1.54609970e+05  1.21e-05 9.09e-13  3.72e-03     0s
  29  -1.54585507e+05 -1.54606960e+05  4.79e-06 9.09e-13  1.82e-03     0s
  30  -1.54595300e+05 -1.54601278e+05  1.34e-06 2.52e-13  5.08e-04     0s
  31  -1.54596864e+05 -1.54600405e+05  8.05e-07 9.09e-13  3.01e-04     0s
  32  -1.54597680e+05 -1.54600070e+05  5.53e-07 9.09e-13  2.03e-04     0s
  33  -1.54598482e+05 -1.54599853e+05  3.15e-07 9.09e-13  1.16e-04     0s
  34  -1.54598988e+05 -1.54599713e+05  1.69e-07 9.09e-13  6.16e-05     0s
  35  -1.54599565e+05 -1.54599655e+05  1.17e-08 2.63e-13  7.69e-06     0s
  36  -1.54599605e+05 -1.54599629e+05  2.41e-09 4.55e-13  2.01e-06     0s
  37  -1.54599618e+05 -1.54599624e+05  3.44e-09 9.09e-13  5.66e-07     0s
  38  -1.54599620e+05 -1.54599622e+05  4.83e-09 1.71e-13  1.38e-07     0s
  39  -1.54599621e+05 -1.54599621e+05  4.77e-09 9.09e-13  2.77e-08     0s
  40  -1.54599621e+05 -1.54599621e+05  2.86e-09 9.09e-13  7.58e-09     0s

Barrier solved model in 40 iterations and 0.30 seconds
Optimal objective -1.54599621e+05

Crossover log...

       0 DPushes remaining with DInf 4.3819344e-11                 0s

     253 PPushes remaining with PInf 3.4102655e-06                 0s
       0 PPushes remaining with PInf 0.0000000e+00                 0s

  Push phase complete: Pinf 0.0000000e+00, Dinf 3.5274174e-03      0s

Iteration    Objective       Primal Inf.    Dual Inf.      Time
     976   -1.5459962e+05   0.000000e+00   3.527417e-03      0s
Extra one simplex iteration after uncrush
    1019   -1.5459962e+05   0.000000e+00   0.000000e+00      0s

Solved in 1019 iterations and 0.37 seconds
Optimal objective -1.545996213e+05
status: OPTIMAL
